SystemLabel graphene

SolutionMethod transiesta

%block kgrid_Monkhorst_Pack
      3    0    0    0.0
      0   51    0    0.0
      0    0    1    0.0
%endblock kgrid_Monkhorst_Pack

LatticeConstant 1. Ang
%block LatticeVectors
 26.01000000 -15.01688050 0.00000000
 2.16750000 1.25140671 0.00000000
 0.00000000 0.00000000 14.45000000
%endblock LatticeVectors

NumberOfAtoms 24
AtomicCoordinatesFormat Ang
%block AtomicCoordinatesAndAtomicSpecies
   0.00000000   0.00000000   0.00000000 1 #  1: C
   1.44500000   0.00000000   0.00000000 1 #  2: C
   2.16750000  -1.25140671   0.00000000 1 #  3: C
   3.61250000  -1.25140671   0.00000000 1 #  4: C
   4.33500000  -2.50281342   0.00000000 1 #  5: C
   5.78000000  -2.50281342   0.00000000 1 #  6: C
   6.50250000  -3.75422013   0.00000000 1 #  7: C
   7.94750000  -3.75422013   0.00000000 1 #  8: C
   8.67000000  -5.00562683   0.00000000 1 #  9: C
  10.11500000  -5.00562683   0.00000000 1 # 10: C
  10.83750000  -6.25703354   0.00000000 1 # 11: C
  12.28250000  -6.25703354   0.00000000 1 # 12: C
  13.00500000  -7.50844025   0.00000000 1 # 13: C
  14.45000000  -7.50844025   0.00000000 1 # 14: C
  15.17250000  -8.75984696   0.00000000 1 # 15: C
  16.61750000  -8.75984696   0.00000000 1 # 16: C
  17.34000000 -10.01125367   0.00000000 1 # 17: C
  18.78500000 -10.01125367   0.00000000 1 # 18: C
  19.50750000 -11.26266038   0.00000000 1 # 19: C
  20.95250000 -11.26266038   0.00000000 1 # 20: C
  21.67500000 -12.51406708   0.00000000 1 # 21: C
  23.12000000 -12.51406708   0.00000000 1 # 22: C
  23.84250000 -13.76547379   0.00000000 1 # 23: C
  25.28750000 -13.76547379   0.00000000 1 # 24: C
%endblock AtomicCoordinatesAndAtomicSpecies

NumberOfSpecies 1
%block ChemicalSpeciesLabel
 1 6 C
%endblock ChemicalSpeciesLabel
%block PS.Lmax
  C 2
%endblock

PAO.BasisType         split
PAO.BasisSize         SZ
PAO.SplitNorm         0.15
PAO.EnergyShift       300 meV

MeshCutoff              250. Ry
XC.functional           LDA
XC.authors              PZ
SolutionMethod          transiesta

ElectronicTemperature   300 K
OccupationFunction      FD

MinSCFIterations       3
MaxSCFIterations       200
DM.MixingWeight        0.1
DM.Tolerance           0.0001
DM.NumberPulay         6
DM.UseSaveDM           .true.
DM.MixSCF1             .true.

MD.NumCGSteps 0

WriteMullikenPop                1
WriteForces                     T
SaveHS                          T

%block TS.ChemPots
  Left
  Right
%endblock TS.ChemPots

%block TS.ChemPot.Left
  mu V/2
  contour.eq
    begin
      C-Left
      T-Left
    end
%endblock TS.ChemPot.Left
%block TS.ChemPot.Right
  mu -V/2
  contour.eq
    begin
      C-Right
      T-Right
    end
%endblock TS.ChemPot.Right

TS.Contours.Eq.Pole 2.5 eV
%block TS.Contour.C-Left
  part circle
   from -40. eV + V/2 to -10 kT + V/2
     points 25
      method g-legendre
%endblock TS.Contour.C-Left
%block TS.Contour.T-Left
  part tail
   from prev to inf
     points 10
      method g-fermi
%endblock TS.Contour.T-Left
%block TS.Contour.C-Right
  part circle
   from -40. eV -V/2 to -10 kT -V/2
     points 25
      method g-legendre
%endblock TS.Contour.C-Right
%block TS.Contour.T-Right
  part tail
   from prev to inf
     points 10
      method g-fermi
%endblock TS.Contour.T-Right

%block TS.Contours.nEq
  neq-1
%endblock TS.Contours.nEq
%block TS.Contour.nEq.neq-1
  part line
   from -|V|/2 - 5 kT to |V|/2 + 5 kT
     delta 0.01 eV
      method mid-rule
%endblock TS.Contour.nEq.neq-1

# We have 2 electrodes
%block TS.Elecs
  Left
  Right
%endblock TS.Elecs

%block TS.Elec.Left
  HS electrode/electrode.TSHS
  chemical-potential Left
  semi-inf-direction -a1
  electrode-position 1
%endblock TS.Elec.Left
%block TS.Elec.Right
  HS electrode/electrode.TSHS
  chemical-potential Right
  semi-inf-direction +a1
  electrode-position end -1
%endblock TS.Elec.Right


# TBtrans allows k-points along self-energy directions
# when using mis-aligned electrodes.
# Hence you MUST specify the k-grid
%block TBT.Contours
    line
%endblock TBT.Contours
%block TBT.Contour.line
  part line
     from -1. eV to 1. eV
      delta 0.5 eV
        method mid-rule
%endblock TBT.Contour.line
    
### FDF ###
TBT.Elecs.Eta 1e-6 eV
TBT.Contours.Eta 0. eV
# Transmission related quantities
TBT.T.All T
TBT.T.Out T
TBT.T.Eig 2
TBT.T.Orbital T

# Density of states
TBT.DOS.Elecs T
TBT.DOS.Gf T
TBT.DOS.A T
TBT.DOS.A.All T

# Orbital transmissions and Crystal-Orbital investigations.
TBT.Symmetry.TimeReversal F
TBT.Current.Orb T
TBT.COOP.Gf T
TBT.COOP.A T
TBT.COHP.Gf T
TBT.COHP.A T

TBT.k [1 11 1]
### FDF ###
