PREC = Accurate
ENCUT = 600
ALGO = FAST
ADDGRID = .TRUE. ! accurate forces

ISMEAR = 1       ! MP1
SIGMA = 0.10

LSORBIT = .TRUE.
LMAXMIX = 4
SAXIS = 0 0 1
NBANDS = 20
GGA_COMPAT = .FALSE. ! apply spherical cutoff on gradient field

LWAVE  = F     
LCHARG = T
LREAL = Auto

IBRION = 2        ! CG
NSW = 1000        ! ionic steps

EDIFF = 1.00e-06
EDIFFG = -0.01
