sisl output
  1.
          2.000000000       0.000000000       0.000000000
          0.000000000       3.00000000       0.000000000
          0.000000000       0.000000000      4.000000000
 N O
 1 1
Selective dynamics
Cartesian
       1.00000000       1.500000000       2.241761128 T T T
       1.00000000       1.500000000       1.047745038 T T T
