sisl output                             
   1.0000000000000000     
     2.0000000000000000    0.0000000000000000    0.0000000000000000
     0.0000000000000000    3.0000000000000000    0.0000000000000000
     0.0000000000000000    0.0000000000000000    4.0000000000000000
  N               O             
     1     1
Selective dynamics
Direct
  0.5000000194844625  0.5000000239094046  0.5664793355507236   T   T   T
  0.4999999805155377  0.4999999760905954  0.2558972059492752   T   T   T

  0.00000000E+00  0.00000000E+00  0.00000000E+00
  0.00000000E+00  0.00000000E+00  0.00000000E+00
