
SystemLabel projection
TBT.HS DEVICE.nc

TBT.T.Eig 6
TBT.DOS.Gf true
TBT.DOS.A true

%block TBT.Elec.Left
  HS ELEC.nc
  semi-inf-direction -A1
  electrode-position 1
%endblock TBT.Elec.Left
%block TBT.Elec.Right
  HS ELEC.nc
  semi-inf-direction +A1
  electrode-position end -1
%endblock TBT.Elec.Right

TBT.Atoms.Device [13 -- 72]

%block TBT.Projs
  C60
%endblock

%block TBT.Proj.C60
  atom [13 -- 72]
  proj HOMO
    level -1
  end
  proj LUMO
    level [1, 2]
  end
%endblock

%block TBT.Projs.T
  from Left to
    Right.C60
  end
  from Left.C60 to
    Right.C60
    Right
  end
%endblock
