graphene                                
   1.0000000000000000     
     2.4720652131676060   -0.0000000000005914    0.0000000000000000
    -1.2360326066349501    2.1408712744707512   -0.0000000000000000
     0.0000000000000000    0.0000000000000000    9.7917791455710912
  C             
     2
Selective dynamics
Direct
  0.0000000000000000  0.0000000000000000  0.0000000000000000   F   F   F
  0.3333333333469852  0.6666666666666643  0.9998803247451405   F   F   T

  0.00000000E+00  0.00000000E+00  0.00000000E+00
  0.00000000E+00  0.00000000E+00  0.00000000E+00
