sisl output                             
   1.00000000000000     
     2.0000000000000000    0.0000000000000000    0.0000000000000000
     0.0000000000000000    3.0000000000000000    0.0000000000000000
     0.0000000000000000    0.0000000000000000    4.0000000000000000
   N    O 
     1     1
Selective dynamics
Direct
  0.5000000000000000  0.5000000000000000  0.5596709722421808   T   T   T
  0.5000000000000000  0.5000000000000000  0.2627055692578181   T   T   T
 
  0.00000000E+00  0.00000000E+00  0.00000000E+00
  0.00000000E+00  0.00000000E+00  0.00000000E+00
