SystemLabel     h2o_dipole
SystemName          2 Water molecules

PAO.BasisSize SZP
%block ChemicalSpeciesLabel
 1  8  O
 2  1  H
%endblock ChemicalSpeciesLabel

LatticeConstant 1.0 Ang
%block LatticeVectors
3.0  0.0 0.0
0.0 30.0 0.0
0.0  0.0 5.0
%endblock LatticeVectors

AtomicCoordinatesFormat  Ang
%block AtomicCoordinatesAndAtomicSpecies
 0.000   0.000  0.000  1
 0.757   0.586  0.000  2
-0.757   0.586  0.000  2
 0.000   5.000  0.000  1
 0.757   4.414  0.000  2
-0.757   4.414  0.000  2
%endblock AtomicCoordinatesAndAtomicSpecies

Slab.DipoleCorrection True

