sisl output                             
   1.0000000000000000     
     0.0000000000000000    1.7849999999999999    1.7849999999999999
     1.7849999999999999    0.0000000000000000    1.7849999999999999
     1.7849999999999999    1.7849999999999999    0.0000000000000000
  C             
     2
Selective dynamics
Direct
  0.0000000000000000  0.0000000000000000  0.0000000000000000   T   T   T
  0.2500000000000000  0.2500000000000000  0.2500000000000000   T   T   T

  0.00000000E+00  0.00000000E+00  0.00000000E+00
  0.00000000E+00  0.00000000E+00  0.00000000E+00
