sisl output
  1.
          0.000000000       1.785000000       1.785000000
          1.785000000       0.000000000       1.785000000
          1.785000000       1.785000000       0.000000000
 C
 2
Selective dynamics
Cartesian
       0.000000000       0.000000000       0.000000000 T T T
       0.892500000       0.892500000       0.892500000 T T T
