graphene                                
   1.00000000000000     
     2.4410462392999999    0.0000000000000000    0.0000000000000000
    -1.2205231196999999    2.1140080550999998    0.0000000000000000
     0.0000000000000000    0.0000000000000000   10.0000000000000000
   C 
     2
Direct
  0.1000000000000000  0.1000000000000000  0.5000000000000000
  0.4220000000000000  0.7660000000000000  0.5200000000000000
 
  0.00000000E+00  0.00000000E+00  0.00000000E+00
  0.00000000E+00  0.00000000E+00  0.00000000E+00
