graphene                                
   1.00000000000000     
     2.4410462392999999    0.0000000000000000    0.0000000000000000
    -1.2205231196999999    2.1140080550999998    0.0000000000000000
     0.0000000000000000    0.0000000000000000   10.0000000000000000
   C 
     2
Selective dynamics
Direct
  0.0000000000000000  0.0000000000000000  0.0000000000000000   F   F   F
  0.3333333333469852  0.6666666666666643  0.0200000000000000   F   F   T
 
  0.00000000E+00  0.00000000E+00  0.00000000E+00
  0.00000000E+00  0.00000000E+00  0.00000000E+00
