SystemLabel H2_hessian

LatticeConstant 1.0 Ang
%block LatticeVectors
 20.00000000 0.00000000 0.00000000
 0.00000000 20.00000000 0.00000000
 0.00000000 0.00000000 20.00000000
%endblock LatticeVectors

NumberOfSpecies 1
%block ChemicalSpeciesLabel
 1 1 H
%endblock ChemicalSpeciesLabel

NumberOfAtoms 2
AtomicCoordinatesFormat Ang
# Move to center
AtomicCoordinatesOrigin COP
%block AtomicCoordinatesAndAtomicSpecies
 0.56328523 0.00000000 0.00000000 1 # 1: H
 1.43671477 0.00000000 0.00000000 1 # 2: H
%endblock AtomicCoordinatesAndAtomicSpecies

# Define atomic masses
%block AtomicMass
 1 1.0079
%endblock

MaxSCFIterations 1000
MeshCutoff 250 Ry
XC.functional	GGA
XC.authors	PBE
SolutionMethod	diagonal 
ElectronicTemperature 100.0 K
OccupationFunction FD

SCF.Mix   Hamiltonian
SCF.H.Converge   T     # default value
SCF.H.Tolerance  0.00005 eV

MD.TypeOfRun           FC
MD.FCfirst              1
MD.FClast               2
MD.FCdispl             0.04 Bohr
