SystemLabel electrode

SolutionMethod diagon
TS.HS.Save

%block kgrid_Monkhorst_Pack
     30    0    0    0.0
      0   51    0    0.0
      0    0    1    0.0
%endblock kgrid_Monkhorst_Pack

LatticeConstant 1. Ang
%block LatticeVectors
 6.50250000 -3.75422013 0.00000000
 2.16750000 1.25140671 0.00000000
 0.00000000 0.00000000 14.45000000
%endblock LatticeVectors

NumberOfAtoms 6
AtomicCoordinatesFormat Ang
%block AtomicCoordinatesAndAtomicSpecies
  0.00000000  0.00000000  0.00000000 1 # 1: C
  1.44500000  0.00000000  0.00000000 1 # 2: C
  2.16750000 -1.25140671  0.00000000 1 # 3: C
  3.61250000 -1.25140671  0.00000000 1 # 4: C
  4.33500000 -2.50281342  0.00000000 1 # 5: C
  5.78000000 -2.50281342  0.00000000 1 # 6: C
%endblock AtomicCoordinatesAndAtomicSpecies

NumberOfSpecies 1
%block ChemicalSpeciesLabel
 1 6 C
%endblock ChemicalSpeciesLabel
%block PS.Lmax
  C 2
%endblock

PAO.BasisType         split
PAO.BasisSize         SZ
PAO.SplitNorm         0.15
PAO.EnergyShift       300 meV

MeshCutoff              250. Ry
XC.functional           LDA
XC.authors              PZ
SolutionMethod          transiesta

ElectronicTemperature   300 K
OccupationFunction      FD

MinSCFIterations       3
MaxSCFIterations       200
DM.MixingWeight        0.1
DM.Tolerance           0.0001
DM.NumberPulay         6
DM.UseSaveDM           .true.
DM.MixSCF1             .true.

MD.NumCGSteps 0

Diag.ParallelOverK T

WriteMullikenPop                1
WriteForces                     T
SaveHS                          T
