graphene                                
   1.0000000000000000     
     2.4410462392999999    0.0000000000000000    0.0000000000000000
    -1.2205231196999999    2.1140080550999998    0.0000000000000000
     0.0000000000000000    0.0000000000000000   10.0000000000000000
  C             
     2
Direct
  0.0893761758287264  0.0995313367358313  0.5105906029360225
  0.4326238241712722  0.7664686632641685  0.5094093970639806

 -0.15220510E-02 -0.86569958E-04  0.16334822E-01
  0.15220510E-02  0.86569958E-04 -0.16334822E-01

           1
  0.10000000000000001     
  0.10000000E+01  0.00000000E+00  0.00000000E+00  0.00000000E+00
  0.89311776E-01  0.99527242E-01  0.51075395E+00
  0.43268822E+00  0.76647276E+00  0.50924605E+00
 -0.66353164E-04 -0.42173519E-05  0.16342713E-03
  0.66353164E-04  0.42173519E-05 -0.16342713E-03
  0.00000000E+00  0.00000000E+00  0.00000000E+00
  0.00000000E+00  0.00000000E+00  0.00000000E+00
