ENMAX  = 400
LWAVE  = F     
LCHARG = F
LREAL = Auto

IBRION = 0
POTIM = 0.1
TEBEG = 300
NSW = 100
