SystemName        Bi 2D hexagonal
SystemLabel       Bi_hexagonal

LatticeConstant 1.0 Ang
%block LatticeVectors
 3.98370000 -2.29999027 0.00000000
 3.98370000 2.29999027 0.00000000
 0.00000000 0.00000000 26.55800000
%endblock LatticeVectors

NumberOfAtoms 2
AtomicCoordinatesFormat Ang
%block AtomicCoordinatesAndAtomicSpecies
 0.00000000 0.00000000 0.00000000 1 # 1: Bi
 2.65580000 0.00000000 1.62000000 1 # 2: Bi
%endblock AtomicCoordinatesAndAtomicSpecies

NumberOfSpecies 1
%block ChemicalSpeciesLabel
 1 83 Bi
%endblock ChemicalSpeciesLabel

%block PAO.Basis
Bi                    3                    # Species label, number of l-shells
 n=6   0   1                         # n, l, Nzeta
   4.861
   1.000
 n=6   1   1 P   1                   # n, l, Nzeta, Polarization, NzetaPol
   6.399
   1.000
 n=5   2   1                         # n, l, Nzeta
   3.258
   1.000
%endblock PAO.Basis


xc.functional         GGA   
xc.authors            PBE  

Spin            spin-orbit           # (default)

SCF.Mix                 Hamiltonian  # (default) Hamiltonian
SCF.Mix.First           F            # (default) true
SCF.Mixer.Method        Pulay        # (default) Pulay
SCF.Mixer.Weight        0.25         # (default) 0.25
SCF.Mixer.History       5            # (default) 2
SCF.Mixer.Kick          0            # (default) 0

SCF.DM.Converge         T            # (default) true
SCF.DM.Tolerance        1.0d-3       # (default) 1.0d-4

%block kgrid.MonkhorstPack
  9   0  0  0.5
  0   9  0  0.5
  0   0  1  0.5
%endblock kgrid.MonkhorstPack

ElectronicTemperature   10 meV
MeshCutoff             400 Ry

SaveHS T
