System = SCF
PREC = N
ISTART = 0
ICHARG =2
ENCUT = 550
EDIFF  = 1e-6
EDIFFG = -0.001
IBRION = 2
ISIF = 3
POTIM = 0.1
ISMEAR = 0
SIGMA = 0.025
LCHARG = F
LWAVE  = F
NPAR = 4
