C: Graphite Lattice
1.0
 +2.4410462393  +0.0000000000  +0.0000000000 
 -1.2205231197  +2.1140080551  +0.0000000000 
 +0.0000000000  +0.0000000000 +10.0000000000 
  2
Cartesian
 +0.0000000000  +0.0000000000  +0.0000000000 
 +0.0000000000  +1.4093387034  +0.0000000000 
