Automatic generation
0
Monkhorst-pack
 2 2 1
 0 0 0
